p cnf 1687
-5 -137
-6 -143
-7 -146
-8 -149
-9 -152
-10 -155
-11 -158
-12 -161
-13 -164
-14 -167
-15 -170
-16 -173
-17 -176
-18 -179
-19 -182
-20 -185
-21 -188
-22 -191
-23 -194
-24 -197
-25 -200
-26 -203
-27 -206
-28 -209
-29 -212
-30 -215
-31 -218
-32 -221
-33 -224
-34 -227
-35 -230
-36 -233
-37 -236
-38 -239
-39 -242
-40 -245
-41 -248
-42 -251
-43 -254
-44 -257
-45 -260
-46 -263
-47 -266
-48 -269
-49 -272
-50 -275
-51 -278
-52 -281
-53 -284
-54 -287
-55 -290
-56 -293
-57 -296
-58 -299
-59 -302
-60 -305
-61 -308
-62 -311
-63 -314
-64 -317
-65 -320
-66 -323
-67 -326
-68 -329
-69 -332
-70 -335
-71 -339
-72 -343
-73 -347
-74 -351
-75 -355
-76 -359
-77 -363
-78 -367
-79 -371
-80 -375
-81 -379
-82 -383
-83 -387
-84 -391
-85 -395
-86 -399
-87 -403
-88 -407
-89 -411
-90 -415
-91 -419
-92 -423
-93 -427
-94 -431
-95 -435
-96 -439
-97 -443
-98 -447
-99 -451
-100 -455
-101 -459
-102 -463
-103 -467
-104 -471
-105 -475
-106 -479
-107 -483
-108 -487
-109 -491
-110 -495
-111 -499
-112 -503
-113 -507
-114 -511
-115 -515
-116 -519
-117 -523
-118 -527
-119 -531
-120 -535
-121 -539
-122 -543
-123 -547
-124 -551
-125 -555
-126 -559
-127 -563
-128 -567
-129 -571
-130 -575
-131 -579
-132 -583
-133 -587
-134 -3
-134 4
3 -4 134
-135 1
-135 134
-1 -134 135
-136 5
-136 -134
-5 134 136
-137 -135
-137 -136
135 136 137
-138 1
-138 -5
-1 5 138
-139 134
-139 138
-134 -138 139
-140 69
-140 139
-69 -139 140
-141 6
-141 -139
-6 139 141
-142 -140
-142 -141
140 141 142
-143 4
-143 142
-4 -142 143
-144 6
-144 139
-6 -139 144
-145 7
-145 -139
-7 139 145
-146 -144
-146 -145
144 145 146
-147 7
-147 139
-7 -139 147
-148 8
-148 -139
-8 139 148
-149 -147
-149 -148
147 148 149
-150 8
-150 139
-8 -139 150
-151 9
-151 -139
-9 139 151
-152 -150
-152 -151
150 151 152
-153 9
-153 139
-9 -139 153
-154 10
-154 -139
-10 139 154
-155 -153
-155 -154
153 154 155
-156 10
-156 139
-10 -139 156
-157 11
-157 -139
-11 139 157
-158 -156
-158 -157
156 157 158
-159 11
-159 139
-11 -139 159
-160 12
-160 -139
-12 139 160
-161 -159
-161 -160
159 160 161
-162 12
-162 139
-12 -139 162
-163 13
-163 -139
-13 139 163
-164 -162
-164 -163
162 163 164
-165 13
-165 139
-13 -139 165
-166 14
-166 -139
-14 139 166
-167 -165
-167 -166
165 166 167
-168 14
-168 139
-14 -139 168
-169 15
-169 -139
-15 139 169
-170 -168
-170 -169
168 169 170
-171 15
-171 139
-15 -139 171
-172 16
-172 -139
-16 139 172
-173 -171
-173 -172
171 172 173
-174 16
-174 139
-16 -139 174
-175 17
-175 -139
-17 139 175
-176 -174
-176 -175
174 175 176
-177 17
-177 139
-17 -139 177
-178 18
-178 -139
-18 139 178
-179 -177
-179 -178
177 178 179
-180 18
-180 139
-18 -139 180
-181 19
-181 -139
-19 139 181
-182 -180
-182 -181
180 181 182
-183 19
-183 139
-19 -139 183
-184 20
-184 -139
-20 139 184
-185 -183
-185 -184
183 184 185
-186 20
-186 139
-20 -139 186
-187 21
-187 -139
-21 139 187
-188 -186
-188 -187
186 187 188
-189 21
-189 139
-21 -139 189
-190 22
-190 -139
-22 139 190
-191 -189
-191 -190
189 190 191
-192 22
-192 139
-22 -139 192
-193 23
-193 -139
-23 139 193
-194 -192
-194 -193
192 193 194
-195 23
-195 139
-23 -139 195
-196 24
-196 -139
-24 139 196
-197 -195
-197 -196
195 196 197
-198 24
-198 139
-24 -139 198
-199 25
-199 -139
-25 139 199
-200 -198
-200 -199
198 199 200
-201 25
-201 139
-25 -139 201
-202 26
-202 -139
-26 139 202
-203 -201
-203 -202
201 202 203
-204 26
-204 139
-26 -139 204
-205 27
-205 -139
-27 139 205
-206 -204
-206 -205
204 205 206
-207 27
-207 139
-27 -139 207
-208 28
-208 -139
-28 139 208
-209 -207
-209 -208
207 208 209
-210 28
-210 139
-28 -139 210
-211 29
-211 -139
-29 139 211
-212 -210
-212 -211
210 211 212
-213 29
-213 139
-29 -139 213
-214 30
-214 -139
-30 139 214
-215 -213
-215 -214
213 214 215
-216 30
-216 139
-30 -139 216
-217 31
-217 -139
-31 139 217
-218 -216
-218 -217
216 217 218
-219 31
-219 139
-31 -139 219
-220 32
-220 -139
-32 139 220
-221 -219
-221 -220
219 220 221
-222 32
-222 139
-32 -139 222
-223 33
-223 -139
-33 139 223
-224 -222
-224 -223
222 223 224
-225 33
-225 139
-33 -139 225
-226 34
-226 -139
-34 139 226
-227 -225
-227 -226
225 226 227
-228 34
-228 139
-34 -139 228
-229 35
-229 -139
-35 139 229
-230 -228
-230 -229
228 229 230
-231 35
-231 139
-35 -139 231
-232 36
-232 -139
-36 139 232
-233 -231
-233 -232
231 232 233
-234 36
-234 139
-36 -139 234
-235 37
-235 -139
-37 139 235
-236 -234
-236 -235
234 235 236
-237 37
-237 139
-37 -139 237
-238 38
-238 -139
-38 139 238
-239 -237
-239 -238
237 238 239
-240 38
-240 139
-38 -139 240
-241 39
-241 -139
-39 139 241
-242 -240
-242 -241
240 241 242
-243 39
-243 139
-39 -139 243
-244 40
-244 -139
-40 139 244
-245 -243
-245 -244
243 244 245
-246 40
-246 139
-40 -139 246
-247 41
-247 -139
-41 139 247
-248 -246
-248 -247
246 247 248
-249 41
-249 139
-41 -139 249
-250 42
-250 -139
-42 139 250
-251 -249
-251 -250
249 250 251
-252 42
-252 139
-42 -139 252
-253 43
-253 -139
-43 139 253
-254 -252
-254 -253
252 253 254
-255 43
-255 139
-43 -139 255
-256 44
-256 -139
-44 139 256
-257 -255
-257 -256
255 256 257
-258 44
-258 139
-44 -139 258
-259 45
-259 -139
-45 139 259
-260 -258
-260 -259
258 259 260
-261 45
-261 139
-45 -139 261
-262 46
-262 -139
-46 139 262
-263 -261
-263 -262
261 262 263
-264 46
-264 139
-46 -139 264
-265 47
-265 -139
-47 139 265
-266 -264
-266 -265
264 265 266
-267 47
-267 139
-47 -139 267
-268 48
-268 -139
-48 139 268
-269 -267
-269 -268
267 268 269
-270 48
-270 139
-48 -139 270
-271 49
-271 -139
-49 139 271
-272 -270
-272 -271
270 271 272
-273 49
-273 139
-49 -139 273
-274 50
-274 -139
-50 139 274
-275 -273
-275 -274
273 274 275
-276 50
-276 139
-50 -139 276
-277 51
-277 -139
-51 139 277
-278 -276
-278 -277
276 277 278
-279 51
-279 139
-51 -139 279
-280 52
-280 -139
-52 139 280
-281 -279
-281 -280
279 280 281
-282 52
-282 139
-52 -139 282
-283 53
-283 -139
-53 139 283
-284 -282
-284 -283
282 283 284
-285 53
-285 139
-53 -139 285
-286 54
-286 -139
-54 139 286
-287 -285
-287 -286
285 286 287
-288 54
-288 139
-54 -139 288
-289 55
-289 -139
-55 139 289
-290 -288
-290 -289
288 289 290
-291 55
-291 139
-55 -139 291
-292 56
-292 -139
-56 139 292
-293 -291
-293 -292
291 292 293
-294 56
-294 139
-56 -139 294
-295 57
-295 -139
-57 139 295
-296 -294
-296 -295
294 295 296
-297 57
-297 139
-57 -139 297
-298 58
-298 -139
-58 139 298
-299 -297
-299 -298
297 298 299
-300 58
-300 139
-58 -139 300
-301 59
-301 -139
-59 139 301
-302 -300
-302 -301
300 301 302
-303 59
-303 139
-59 -139 303
-304 60
-304 -139
-60 139 304
-305 -303
-305 -304
303 304 305
-306 60
-306 139
-60 -139 306
-307 61
-307 -139
-61 139 307
-308 -306
-308 -307
306 307 308
-309 61
-309 139
-61 -139 309
-310 62
-310 -139
-62 139 310
-311 -309
-311 -310
309 310 311
-312 62
-312 139
-62 -139 312
-313 63
-313 -139
-63 139 313
-314 -312
-314 -313
312 313 314
-315 63
-315 139
-63 -139 315
-316 64
-316 -139
-64 139 316
-317 -315
-317 -316
315 316 317
-318 64
-318 139
-64 -139 318
-319 65
-319 -139
-65 139 319
-320 -318
-320 -319
318 319 320
-321 65
-321 139
-65 -139 321
-322 66
-322 -139
-66 139 322
-323 -321
-323 -322
321 322 323
-324 66
-324 139
-66 -139 324
-325 67
-325 -139
-67 139 325
-326 -324
-326 -325
324 325 326
-327 67
-327 139
-67 -139 327
-328 68
-328 -139
-68 139 328
-329 -327
-329 -328
327 328 329
-330 68
-330 139
-68 -139 330
-331 69
-331 -139
-69 139 331
-332 -330
-332 -331
330 331 332
-333 2
-333 144
-2 -144 333
-334 70
-334 -144
-70 144 334
-335 -333
-335 -334
333 334 335
-336 71
-336 -144
-71 144 336
-337 2
-337 147
-2 -147 337
-338 -147
-338 336
147 -336 338
-339 -337
-339 -338
337 338 339
-340 72
-340 -144
-72 144 340
-341 2
-341 150
-2 -150 341
-342 -150
-342 340
150 -340 342
-343 -341
-343 -342
341 342 343
-344 73
-344 -144
-73 144 344
-345 2
-345 153
-2 -153 345
-346 -153
-346 344
153 -344 346
-347 -345
-347 -346
345 346 347
-348 74
-348 -144
-74 144 348
-349 2
-349 156
-2 -156 349
-350 -156
-350 348
156 -348 350
-351 -349
-351 -350
349 350 351
-352 75
-352 -144
-75 144 352
-353 2
-353 159
-2 -159 353
-354 -159
-354 352
159 -352 354
-355 -353
-355 -354
353 354 355
-356 76
-356 -144
-76 144 356
-357 2
-357 162
-2 -162 357
-358 -162
-358 356
162 -356 358
-359 -357
-359 -358
357 358 359
-360 77
-360 -144
-77 144 360
-361 2
-361 165
-2 -165 361
-362 -165
-362 360
165 -360 362
-363 -361
-363 -362
361 362 363
-364 78
-364 -144
-78 144 364
-365 2
-365 168
-2 -168 365
-366 -168
-366 364
168 -364 366
-367 -365
-367 -366
365 366 367
-368 79
-368 -144
-79 144 368
-369 2
-369 171
-2 -171 369
-370 -171
-370 368
171 -368 370
-371 -369
-371 -370
369 370 371
-372 80
-372 -144
-80 144 372
-373 2
-373 174
-2 -174 373
-374 -174
-374 372
174 -372 374
-375 -373
-375 -374
373 374 375
-376 81
-376 -144
-81 144 376
-377 2
-377 177
-2 -177 377
-378 -177
-378 376
177 -376 378
-379 -377
-379 -378
377 378 379
-380 82
-380 -144
-82 144 380
-381 2
-381 180
-2 -180 381
-382 -180
-382 380
180 -380 382
-383 -381
-383 -382
381 382 383
-384 83
-384 -144
-83 144 384
-385 2
-385 183
-2 -183 385
-386 -183
-386 384
183 -384 386
-387 -385
-387 -386
385 386 387
-388 84
-388 -144
-84 144 388
-389 2
-389 186
-2 -186 389
-390 -186
-390 388
186 -388 390
-391 -389
-391 -390
389 390 391
-392 85
-392 -144
-85 144 392
-393 2
-393 189
-2 -189 393
-394 -189
-394 392
189 -392 394
-395 -393
-395 -394
393 394 395
-396 86
-396 -144
-86 144 396
-397 2
-397 192
-2 -192 397
-398 -192
-398 396
192 -396 398
-399 -397
-399 -398
397 398 399
-400 87
-400 -144
-87 144 400
-401 2
-401 195
-2 -195 401
-402 -195
-402 400
195 -400 402
-403 -401
-403 -402
401 402 403
-404 88
-404 -144
-88 144 404
-405 2
-405 198
-2 -198 405
-406 -198
-406 404
198 -404 406
-407 -405
-407 -406
405 406 407
-408 89
-408 -144
-89 144 408
-409 2
-409 201
-2 -201 409
-410 -201
-410 408
201 -408 410
-411 -409
-411 -410
409 410 411
-412 90
-412 -144
-90 144 412
-413 2
-413 204
-2 -204 413
-414 -204
-414 412
204 -412 414
-415 -413
-415 -414
413 414 415
-416 91
-416 -144
-91 144 416
-417 2
-417 207
-2 -207 417
-418 -207
-418 416
207 -416 418
-419 -417
-419 -418
417 418 419
-420 92
-420 -144
-92 144 420
-421 2
-421 210
-2 -210 421
-422 -210
-422 420
210 -420 422
-423 -421
-423 -422
421 422 423
-424 93
-424 -144
-93 144 424
-425 2
-425 213
-2 -213 425
-426 -213
-426 424
213 -424 426
-427 -425
-427 -426
425 426 427
-428 94
-428 -144
-94 144 428
-429 2
-429 216
-2 -216 429
-430 -216
-430 428
216 -428 430
-431 -429
-431 -430
429 430 431
-432 95
-432 -144
-95 144 432
-433 2
-433 219
-2 -219 433
-434 -219
-434 432
219 -432 434
-435 -433
-435 -434
433 434 435
-436 96
-436 -144
-96 144 436
-437 2
-437 222
-2 -222 437
-438 -222
-438 436
222 -436 438
-439 -437
-439 -438
437 438 439
-440 97
-440 -144
-97 144 440
-441 2
-441 225
-2 -225 441
-442 -225
-442 440
225 -440 442
-443 -441
-443 -442
441 442 443
-444 98
-444 -144
-98 144 444
-445 2
-445 228
-2 -228 445
-446 -228
-446 444
228 -444 446
-447 -445
-447 -446
445 446 447
-448 99
-448 -144
-99 144 448
-449 2
-449 231
-2 -231 449
-450 -231
-450 448
231 -448 450
-451 -449
-451 -450
449 450 451
-452 100
-452 -144
-100 144 452
-453 2
-453 234
-2 -234 453
-454 -234
-454 452
234 -452 454
-455 -453
-455 -454
453 454 455
-456 101
-456 -144
-101 144 456
-457 2
-457 237
-2 -237 457
-458 -237
-458 456
237 -456 458
-459 -457
-459 -458
457 458 459
-460 102
-460 -144
-102 144 460
-461 2
-461 240
-2 -240 461
-462 -240
-462 460
240 -460 462
-463 -461
-463 -462
461 462 463
-464 103
-464 -144
-103 144 464
-465 2
-465 243
-2 -243 465
-466 -243
-466 464
243 -464 466
-467 -465
-467 -466
465 466 467
-468 104
-468 -144
-104 144 468
-469 2
-469 246
-2 -246 469
-470 -246
-470 468
246 -468 470
-471 -469
-471 -470
469 470 471
-472 105
-472 -144
-105 144 472
-473 2
-473 249
-2 -249 473
-474 -249
-474 472
249 -472 474
-475 -473
-475 -474
473 474 475
-476 106
-476 -144
-106 144 476
-477 2
-477 252
-2 -252 477
-478 -252
-478 476
252 -476 478
-479 -477
-479 -478
477 478 479
-480 107
-480 -144
-107 144 480
-481 2
-481 255
-2 -255 481
-482 -255
-482 480
255 -480 482
-483 -481
-483 -482
481 482 483
-484 108
-484 -144
-108 144 484
-485 2
-485 258
-2 -258 485
-486 -258
-486 484
258 -484 486
-487 -485
-487 -486
485 486 487
-488 109
-488 -144
-109 144 488
-489 2
-489 261
-2 -261 489
-490 -261
-490 488
261 -488 490
-491 -489
-491 -490
489 490 491
-492 110
-492 -144
-110 144 492
-493 2
-493 264
-2 -264 493
-494 -264
-494 492
264 -492 494
-495 -493
-495 -494
493 494 495
-496 111
-496 -144
-111 144 496
-497 2
-497 267
-2 -267 497
-498 -267
-498 496
267 -496 498
-499 -497
-499 -498
497 498 499
-500 112
-500 -144
-112 144 500
-501 2
-501 270
-2 -270 501
-502 -270
-502 500
270 -500 502
-503 -501
-503 -502
501 502 503
-504 113
-504 -144
-113 144 504
-505 2
-505 273
-2 -273 505
-506 -273
-506 504
273 -504 506
-507 -505
-507 -506
505 506 507
-508 114
-508 -144
-114 144 508
-509 2
-509 276
-2 -276 509
-510 -276
-510 508
276 -508 510
-511 -509
-511 -510
509 510 511
-512 115
-512 -144
-115 144 512
-513 2
-513 279
-2 -279 513
-514 -279
-514 512
279 -512 514
-515 -513
-515 -514
513 514 515
-516 116
-516 -144
-116 144 516
-517 2
-517 282
-2 -282 517
-518 -282
-518 516
282 -516 518
-519 -517
-519 -518
517 518 519
-520 117
-520 -144
-117 144 520
-521 2
-521 285
-2 -285 521
-522 -285
-522 520
285 -520 522
-523 -521
-523 -522
521 522 523
-524 118
-524 -144
-118 144 524
-525 2
-525 288
-2 -288 525
-526 -288
-526 524
288 -524 526
-527 -525
-527 -526
525 526 527
-528 119
-528 -144
-119 144 528
-529 2
-529 291
-2 -291 529
-530 -291
-530 528
291 -528 530
-531 -529
-531 -530
529 530 531
-532 120
-532 -144
-120 144 532
-533 2
-533 294
-2 -294 533
-534 -294
-534 532
294 -532 534
-535 -533
-535 -534
533 534 535
-536 121
-536 -144
-121 144 536
-537 2
-537 297
-2 -297 537
-538 -297
-538 536
297 -536 538
-539 -537
-539 -538
537 538 539
-540 122
-540 -144
-122 144 540
-541 2
-541 300
-2 -300 541
-542 -300
-542 540
300 -540 542
-543 -541
-543 -542
541 542 543
-544 123
-544 -144
-123 144 544
-545 2
-545 303
-2 -303 545
-546 -303
-546 544
303 -544 546
-547 -545
-547 -546
545 546 547
-548 124
-548 -144
-124 144 548
-549 2
-549 306
-2 -306 549
-550 -306
-550 548
306 -548 550
-551 -549
-551 -550
549 550 551
-552 125
-552 -144
-125 144 552
-553 2
-553 309
-2 -309 553
-554 -309
-554 552
309 -552 554
-555 -553
-555 -554
553 554 555
-556 126
-556 -144
-126 144 556
-557 2
-557 312
-2 -312 557
-558 -312
-558 556
312 -556 558
-559 -557
-559 -558
557 558 559
-560 127
-560 -144
-127 144 560
-561 2
-561 315
-2 -315 561
-562 -315
-562 560
315 -560 562
-563 -561
-563 -562
561 562 563
-564 128
-564 -144
-128 144 564
-565 2
-565 318
-2 -318 565
-566 -318
-566 564
318 -564 566
-567 -565
-567 -566
565 566 567
-568 129
-568 -144
-129 144 568
-569 2
-569 321
-2 -321 569
-570 -321
-570 568
321 -568 570
-571 -569
-571 -570
569 570 571
-572 130
-572 -144
-130 144 572
-573 2
-573 324
-2 -324 573
-574 -324
-574 572
324 -572 574
-575 -573
-575 -574
573 574 575
-576 131
-576 -144
-131 144 576
-577 2
-577 327
-2 -327 577
-578 -327
-578 576
327 -576 578
-579 -577
-579 -578
577 578 579
-580 132
-580 -144
-132 144 580
-581 2
-581 330
-2 -330 581
-582 -330
-582 580
330 -580 582
-583 -581
-583 -582
581 582 583
-584 133
-584 -144
-133 144 584
-585 2
-585 140
-2 -140 585
-586 -140
-586 584
140 -584 586
-587 -585
-587 -586
585 586 587
-588 6
-588 134
-6 -134 588
-589 70
-589 -71
-70 71 589
-590 72
-590 -73
-72 73 590
-591 74
-591 75
-74 -75 591
-592 -76
-592 77
76 -77 592
-593 78
-593 79
-78 -79 593
-594 80
-594 81
-80 -81 594
-595 82
-595 -83
-82 83 595
-596 -84
-596 -85
84 85 596
-597 -86
-597 87
86 -87 597
-598 -88
-598 89
88 -89 598
-599 -90
-599 91
90 -91 599
-600 -92
-600 -93
92 93 600
-601 -94
-601 95
94 -95 601
-602 -96
-602 97
96 -97 602
-603 98
-603 -99
-98 99 603
-604 -100
-604 -101
100 101 604
-605 102
-605 -103
-102 103 605
-606 104
-606 -105
-104 105 606
-607 -106
-607 -107
106 107 607
-608 108
-608 -109
-108 109 608
-609 110
-609 -111
-110 111 609
-610 112
-610 113
-112 -113 610
-611 114
-611 -115
-114 115 611
-612 116
-612 117
-116 -117 612
-613 -118
-613 119
118 -119 613
-614 -120
-614 -121
120 121 614
-615 122
-615 -123
-122 123 615
-616 124
-616 -125
-124 125 616
-617 126
-617 -127
-126 127 617
-618 -128
-618 129
128 -129 618
-619 130
-619 -131
-130 131 619
-620 132
-620 -133
-132 133 620
-621 589
-621 590
-589 -590 621
-622 591
-622 592
-591 -592 622
-623 593
-623 594
-593 -594 623
-624 595
-624 596
-595 -596 624
-625 597
-625 598
-597 -598 625
-626 599
-626 600
-599 -600 626
-627 601
-627 602
-601 -602 627
-628 603
-628 604
-603 -604 628
-629 605
-629 606
-605 -606 629
-630 607
-630 608
-607 -608 630
-631 609
-631 610
-609 -610 631
-632 611
-632 612
-611 -612 632
-633 613
-633 614
-613 -614 633
-634 615
-634 616
-615 -616 634
-635 617
-635 618
-617 -618 635
-636 619
-636 620
-619 -620 636
-637 621
-637 622
-621 -622 637
-638 623
-638 624
-623 -624 638
-639 625
-639 626
-625 -626 639
-640 627
-640 628
-627 -628 640
-641 629
-641 630
-629 -630 641
-642 631
-642 632
-631 -632 642
-643 633
-643 634
-633 -634 643
-644 635
-644 636
-635 -636 644
-645 637
-645 638
-637 -638 645
-646 639
-646 640
-639 -640 646
-647 641
-647 642
-641 -642 647
-648 643
-648 644
-643 -644 648
-649 645
-649 646
-645 -646 649
-650 647
-650 648
-647 -648 650
-651 649
-651 650
-649 -650 651
-652 588
-652 651
-588 -651 652
652
